p edge 80 349
v 1 2
v 2 2
v 3 5
v 4 10
v 5 5
v 6 9
v 7 10
v 8 10
v 9 5
v 10 6
v 11 1
v 12 10
v 13 5
v 14 9
v 15 6
v 16 1
v 17 6
v 18 8
v 19 1
v 20 2
v 21 10
v 22 2
v 23 2
v 24 2
v 25 4
v 26 6
v 27 6
v 28 3
v 29 9
v 30 8
v 31 5
v 32 1
v 33 9
v 34 9
v 35 10
v 36 4
v 37 8
v 38 10
v 39 3
v 40 2
v 41 5
v 42 3
v 43 1
v 44 9
v 45 2
v 46 7
v 47 10
v 48 7
v 49 5
v 50 10
v 51 8
v 52 4
v 53 1
v 54 10
v 55 5
v 56 5
v 57 5
v 58 10
v 59 7
v 60 4
v 61 8
v 62 2
v 63 4
v 64 7
v 65 10
v 66 4
v 67 10
v 68 8
v 69 3
v 70 3
v 71 9
v 72 7
v 73 6
v 74 10
v 75 6
v 76 7
v 77 7
v 78 5
v 79 4
v 80 1
e 1 2
e 1 3
e 1 51
e 1 64
e 2 3
e 2 23
e 2 30
e 2 45
e 2 51
e 2 64
e 2 72
e 3 23
e 3 25
e 3 30
e 3 45
e 3 51
e 3 64
e 3 72
e 4 6
e 4 7
e 4 12
e 4 18
e 4 27
e 4 74
e 5 15
e 5 21
e 5 52
e 5 53
e 5 61
e 5 68
e 5 70
e 5 75
e 6 7
e 6 12
e 6 18
e 6 27
e 6 74
e 7 12
e 7 18
e 7 27
e 7 43
e 7 57
e 7 59
e 7 63
e 7 65
e 7 74
e 8 13
e 8 21
e 8 29
e 8 46
e 8 52
e 8 53
e 8 61
e 8 68
e 8 76
e 8 80
e 9 10
e 9 35
e 9 38
e 9 50
e 9 60
e 9 67
e 10 36
e 10 38
e 10 47
e 10 50
e 10 60
e 10 66
e 10 79
e 11 22
e 11 24
e 11 49
e 11 56
e 11 69
e 11 73
e 12 18
e 12 27
e 12 65
e 12 74
e 13 17
e 13 29
e 13 31
e 13 42
e 13 46
e 13 52
e 13 53
e 13 68
e 13 77
e 13 80
e 14 19
e 14 20
e 14 24
e 14 25
e 14 26
e 14 44
e 14 58
e 14 67
e 14 79
e 15 21
e 15 33
e 15 35
e 15 52
e 15 61
e 15 68
e 15 70
e 15 75
e 16 28
e 16 31
e 16 33
e 16 34
e 16 37
e 16 39
e 16 42
e 16 48
e 16 54
e 16 62
e 16 63
e 16 77
e 16 78
e 17 29
e 17 31
e 17 32
e 17 41
e 17 46
e 17 77
e 17 80
e 18 27
e 18 59
e 18 65
e 18 74
e 19 20
e 19 47
e 19 50
e 19 58
e 19 66
e 19 79
e 20 25
e 20 30
e 20 44
e 20 58
e 20 79
e 21 52
e 21 53
e 21 61
e 21 68
e 21 70
e 21 75
e 22 28
e 22 43
e 22 48
e 22 49
e 22 56
e 22 59
e 22 63
e 22 65
e 22 69
e 23 24
e 23 25
e 23 30
e 23 45
e 23 64
e 23 72
e 23 73
e 24 25
e 24 44
e 24 45
e 24 49
e 24 72
e 24 73
e 25 30
e 25 44
e 25 45
e 25 58
e 25 64
e 25 72
e 26 35
e 26 44
e 26 67
e 26 79
e 27 59
e 27 65
e 27 74
e 28 34
e 28 37
e 28 39
e 28 43
e 28 48
e 28 54
e 28 56
e 28 62
e 28 63
e 28 69
e 28 78
e 29 31
e 29 32
e 29 46
e 29 53
e 29 76
e 29 77
e 29 80
e 30 45
e 30 58
e 30 64
e 30 72
e 31 37
e 31 42
e 31 52
e 31 53
e 31 68
e 31 77
e 31 80
e 32 37
e 32 39
e 32 41
e 32 54
e 32 62
e 32 77
e 32 80
e 33 42
e 33 48
e 33 75
e 33 78
e 34 37
e 34 39
e 34 42
e 34 43
e 34 48
e 34 54
e 34 62
e 34 63
e 34 69
e 34 78
e 35 38
e 35 67
e 35 70
e 35 75
e 36 38
e 36 47
e 36 50
e 36 60
e 36 66
e 36 79
e 37 39
e 37 41
e 37 42
e 37 48
e 37 54
e 37 62
e 37 63
e 37 77
e 38 47
e 38 50
e 38 60
e 39 41
e 39 54
e 39 62
e 39 63
e 40 55
e 40 71
e 40 73
e 41 54
e 41 62
e 41 77
e 42 48
e 42 52
e 42 53
e 42 54
e 42 62
e 42 77
e 42 78
e 42 80
e 43 54
e 43 56
e 43 57
e 43 59
e 43 63
e 43 65
e 43 69
e 44 58
e 44 67
e 44 79
e 45 55
e 45 64
e 45 72
e 45 73
e 46 76
e 46 80
e 47 50
e 47 60
e 47 66
e 47 79
e 48 69
e 48 78
e 49 55
e 49 56
e 49 59
e 49 69
e 49 73
e 50 60
e 50 66
e 50 79
e 51 64
e 52 53
e 52 61
e 52 68
e 52 70
e 52 75
e 52 77
e 52 80
e 53 61
e 53 68
e 53 70
e 53 75
e 53 77
e 53 80
e 54 62
e 54 63
e 54 77
e 55 71
e 55 73
e 56 57
e 56 59
e 56 63
e 56 65
e 56 69
e 57 59
e 57 63
e 57 65
e 58 79
e 59 63
e 59 65
e 59 69
e 60 66
e 61 68
e 61 70
e 61 75
e 62 63
e 62 77
e 64 72
e 65 71
e 65 74
e 66 79
e 67 79
e 68 70
e 68 75
e 69 78
e 70 75
e 72 73
e 77 80
